53
1 2 9 15
2 2 5 34
3 7 6 14 19 30 35 36 38
4 5 16 29 33 40 41
5 1 2
6 4 3 14 30 35
7 6 10 11 21 23 24 26
8 6 13 18 25 31 43 46
9 1 1
10 4 7 23 27 44
11 4 7 21 24 32
12 2 24 34
13 3 8 18 28
14 3 3 6 30
15 2 1 30
16 5 4 27 29 31 50
17 3 20 22 25
18 5 8 13 28 31 51
19 6 3 23 26 35 38 40
20 6 17 22 25 43 44 47
21 5 7 11 26 32 36
22 3 17 20 24
23 4 7 10 19 26
24 5 7 11 12 22 32
25 4 8 17 20 43
26 6 7 19 21 23 36 38
27 5 10 16 44 47 50
28 4 13 18 42 51
29 5 4 16 31 37 41
30 4 3 6 14 15
31 9 8 16 18 29 37 46 49 50 51
32 4 11 21 24 36
33 2 4 41
34 2 2 12
35 4 3 6 19 40
36 5 3 21 26 32 38
37 6 29 31 39 41 48 49
38 4 3 19 26 36
39 4 37 41 48 53
40 3 4 19 35
41 5 4 29 33 37 39
42 3 28 51 52
43 5 8 20 25 46 47
44 4 10 20 27 47
45 4 48 49 51 52
46 5 8 31 43 47 50
47 6 20 27 43 44 46 50
48 6 37 39 45 49 52 53
49 5 31 37 45 48 51
50 5 16 27 31 46 47
51 7 18 28 31 42 45 49 52
52 5 42 45 48 51 53
53 3 39 48 52
